(declare-fun temp11364_2 () (_ BitVec 64))
(declare-fun temp11364_1 () (_ BitVec 64))
(declare-fun temp11364_4 () (_ BitVec 64))
(declare-fun temp11364_3 () (_ BitVec 64))
(declare-fun temp11364_5 () (_ BitVec 64))
(declare-fun var335690 () (_ BitVec 64))
(declare-fun temp11364_6 () (_ BitVec 64))
(declare-fun var3737398 () (_ BitVec 64))
(declare-fun var3936476 () (_ BitVec 64))
(declare-fun temp11364_7 () (_ BitVec 64))
(declare-fun var4720619 () (_ BitVec 64))
(declare-fun ARGNAME_input_NAMEEND_DIM () (_ BitVec 64))
(declare-fun temp11364_9 () (_ BitVec 64))
(declare-fun temp11364_8 () (_ BitVec 64))
(declare-fun var4787063 () (_ BitVec 64))
(declare-fun temp11364_10 () (_ BitVec 64))
(declare-fun var4853512 () (_ BitVec 64))
(declare-fun var4919057 () (_ BitVec 64))
(declare-fun temp11364_12 () (_ BitVec 64))
(declare-fun temp11364_11 () (_ BitVec 64))
(declare-fun temp11364_13 () (_ BitVec 64))
(declare-fun var5115639 () (_ BitVec 64))
(declare-fun temp11364_14 () (_ BitVec 64))
(declare-fun var4720680 () (_ BitVec 64))
(declare-fun var4720722 () (_ BitVec 64))
(declare-fun temp11364_16 () (_ BitVec 64))
(declare-fun temp11364_15 () (_ BitVec 64))
(declare-fun temp11364_17 () (_ BitVec 64))
(declare-fun var5573624 () (_ BitVec 64))
(declare-fun temp11364_18 () (_ BitVec 64))
(declare-fun var5573662 () (_ BitVec 64))
(declare-fun temp11364_19 () (_ BitVec 64))
(declare-fun var5573674 () (_ BitVec 64))
(declare-fun temp11364_20 () (_ BitVec 64))
(declare-fun temp11364_21 () (_ BitVec 64))
(declare-fun var4720667 () (_ BitVec 64))
(declare-fun var4720666 () (_ BitVec 64))
(declare-fun temp11364_22 () (_ BitVec 64))
(declare-fun var4720671 () (_ BitVec 64))
(declare-fun temp11364_23 () (_ BitVec 64))
(declare-fun var4720673 () (_ BitVec 64))
(declare-fun temp11364_24 () (_ BitVec 64))
(declare-fun temp11364_25 () (_ BitVec 64))
(declare-fun var6555854 () (_ BitVec 64))
(declare-fun temp11364_26 () (_ BitVec 64))
(declare-fun temp11364_27 () (_ BitVec 64))
(declare-fun var6555884 () (_ BitVec 64))
(declare-fun var6555931 () (_ BitVec 64))
(declare-fun var6555852 () (_ BitVec 64))
(declare-fun var270533 () (_ BitVec 64))
(declare-fun var270534 () (_ BitVec 64))
(declare-fun temp11364_28 () (_ BitVec 64))
(declare-fun var7610724 () (_ BitVec 64))
(declare-fun var7610765 () (_ BitVec 64))
(declare-fun var7803608 () (_ BitVec 64))
(declare-fun temp11364_29 () (_ BitVec 64))
(declare-fun var7803609 () (_ BitVec 64))
(assert (= temp11364_2 #x0000000000000000))
(assert (= temp11364_1 temp11364_2))
(assert (= temp11364_4 #x0000000000000000))
(assert (= temp11364_3 temp11364_4))
(assert (= temp11364_5 #x0000000000000005))
(assert (= var335690 temp11364_5))
(assert (= temp11364_6 #x0000000000000001))
(assert (= var3737398 temp11364_6))
(assert (= var3936476 var3737398))
(assert (= temp11364_7 #x0000000000000001))
(assert (= var4720619 (bvshl ARGNAME_input_NAMEEND_DIM temp11364_7)))
(assert (= temp11364_9 #x0000000000000000))
(assert (= temp11364_8 temp11364_9))
(assert (= var4787063 var4720619))
(assert (= temp11364_10 #x0000000000000005))
(assert (= var4853512 temp11364_10))
(assert (= var4919057 var4787063))
(assert (= temp11364_12 #x0000000000000000))
(assert (= temp11364_11 temp11364_12))
(assert (= temp11364_13 #x0000000000000000))
(assert (= var5115639 temp11364_13))
(assert (= temp11364_14 #x0000000000000000))
(assert (= var4720680 temp11364_14))
(assert (= var4720722 var4720680))
(assert (= temp11364_16 #x0000000000000000))
(assert (= temp11364_15 temp11364_16))
(assert (= temp11364_17 #x0000000000000001))
(assert (= var5573624 temp11364_17))
(assert (= temp11364_18 #x0000000000000000))
(assert (= var5573662 temp11364_18))
(assert (= temp11364_19 #x0000000000000000))
(assert (= var5573674 temp11364_19))
(assert (= temp11364_20 #x0000000000000000))
(assert (= var5573674 temp11364_20))
(assert (= temp11364_21 #x0000000000000000))
(assert (= var5573662 temp11364_21))
(assert (= var4720667 var4720722))
(assert (= var4720666 var4720667))
(assert (= temp11364_22 #x0000000000000001))
(assert (= var4720671 (bvand var4720666 temp11364_22)))
(assert (= temp11364_23 #x0000000000000000))
(assert (= var4720673
   (ite (= var4720671 temp11364_23) #x0000000000000001 #x0000000000000000)))
(assert (= temp11364_24 #x0000000000000001))
(assert (= var4720673 temp11364_24))
(assert (= temp11364_25 #x0000000000000001))
(assert (= var6555854 temp11364_25))
(assert (= temp11364_26 #x0000000000000000))
(assert (= temp11364_27 #x0000000000000002))
(assert (= var6555884 (ite (= var6555854 #x0000000000000001) temp11364_26 temp11364_27)))
(assert (= var6555931 var6555884))
(assert (= var6555852 var6555931))
(assert (= var270533 var6555852))
(assert (= var270534 var270533))
(assert (= temp11364_28 #x0000000000000000))
(assert (= var7610724 temp11364_28))
(assert (= var7610765 var7610724))
(assert (= var7803608 var270534))
(assert (= temp11364_29 #x0000000000000001))
(assert (= var7803609 temp11364_29))
(model-add temp11364_2 () (_ BitVec 64) #x0000000000000000)
(model-add temp11364_1 () (_ BitVec 64) #x0000000000000000)
(model-add temp11364_4 () (_ BitVec 64) #x0000000000000000)
(model-add temp11364_3 () (_ BitVec 64) #x0000000000000000)
(model-add temp11364_5 () (_ BitVec 64) #x0000000000000005)
(model-add var335690 () (_ BitVec 64) #x0000000000000005)
(model-add temp11364_6 () (_ BitVec 64) #x0000000000000001)
(model-add var3737398 () (_ BitVec 64) #x0000000000000001)
(model-add var3936476 () (_ BitVec 64) #x0000000000000001)
(model-add temp11364_7 () (_ BitVec 64) #x0000000000000001)
(model-add var4720619
           ()
           (_ BitVec 64)
           (concat ((_ extract 62 0) ARGNAME_input_NAMEEND_DIM) #b0))
(model-add temp11364_9 () (_ BitVec 64) #x0000000000000000)
(model-add temp11364_8 () (_ BitVec 64) #x0000000000000000)
(model-add var4787063
           ()
           (_ BitVec 64)
           (concat ((_ extract 62 0) ARGNAME_input_NAMEEND_DIM) #b0))
(model-add temp11364_10 () (_ BitVec 64) #x0000000000000005)
(model-add var4853512 () (_ BitVec 64) #x0000000000000005)
(model-add var4919057
           ()
           (_ BitVec 64)
           (concat ((_ extract 62 0) ARGNAME_input_NAMEEND_DIM) #b0))
(model-add temp11364_12 () (_ BitVec 64) #x0000000000000000)
(model-add temp11364_11 () (_ BitVec 64) #x0000000000000000)
(model-add temp11364_13 () (_ BitVec 64) #x0000000000000000)
(model-add var5115639 () (_ BitVec 64) #x0000000000000000)
(model-add temp11364_14 () (_ BitVec 64) #x0000000000000000)
(model-add var4720680 () (_ BitVec 64) #x0000000000000000)
(model-add var4720722 () (_ BitVec 64) #x0000000000000000)
(model-add temp11364_16 () (_ BitVec 64) #x0000000000000000)
(model-add temp11364_15 () (_ BitVec 64) #x0000000000000000)
(model-add temp11364_17 () (_ BitVec 64) #x0000000000000001)
(model-add var5573624 () (_ BitVec 64) #x0000000000000001)
(model-add temp11364_18 () (_ BitVec 64) #x0000000000000000)
(model-add var5573662 () (_ BitVec 64) #x0000000000000000)
(model-add temp11364_19 () (_ BitVec 64) #x0000000000000000)
(model-add var5573674 () (_ BitVec 64) #x0000000000000000)
(model-add temp11364_20 () (_ BitVec 64) #x0000000000000000)




